
;this file is automatically generated: Tue Feb 23 13:38:03 CST 2021

;declarations generated

(declare-fun oclExcludes ( Int Int) Bool)
(declare-fun Cardinality ( Int) Int)
(declare-fun class33_Class33IntAttr3 ( Int) Int)
(declare-fun class33_Class33IntAttr2 ( Int) Int)
(declare-fun type_5d56abcb_21bf_4dd9_aa93_8ae6b747d81d_Class45 ( Int) Bool)
(declare-fun type_5d56abcb_21bf_4dd9_aa93_8ae6b747d81d_Class40 ( Int) Bool)
(declare-fun type_5d56abcb_21bf_4dd9_aa93_8ae6b747d81d_Class43 ( Int) Bool)
(declare-fun type_5d56abcb_21bf_4dd9_aa93_8ae6b747d81d_Class44 ( Int) Bool)
(declare-fun type_5d56abcb_21bf_4dd9_aa93_8ae6b747d81d_Class41 ( Int) Bool)
(declare-fun type_5d56abcb_21bf_4dd9_aa93_8ae6b747d81d_Class42 ( Int) Bool)
(declare-fun type_5d56abcb_21bf_4dd9_aa93_8ae6b747d81d_Class36 ( Int) Bool)
(declare-fun type_5d56abcb_21bf_4dd9_aa93_8ae6b747d81d_Class37 ( Int) Bool)
(declare-fun type_5d56abcb_21bf_4dd9_aa93_8ae6b747d81d_Class34 ( Int) Bool)
(declare-fun type_5d56abcb_21bf_4dd9_aa93_8ae6b747d81d_Class35 ( Int) Bool)
(declare-fun type_5d56abcb_21bf_4dd9_aa93_8ae6b747d81d_Class38 ( Int) Bool)
(declare-fun type_5d56abcb_21bf_4dd9_aa93_8ae6b747d81d_Class39 ( Int) Bool)
(declare-fun type_5d56abcb_21bf_4dd9_aa93_8ae6b747d81d_Class32 ( Int) Bool)
(declare-fun type_5d56abcb_21bf_4dd9_aa93_8ae6b747d81d_Class33 ( Int) Bool)
(declare-fun type_5d56abcb_21bf_4dd9_aa93_8ae6b747d81d_Class30 ( Int) Bool)
(declare-fun type_5d56abcb_21bf_4dd9_aa93_8ae6b747d81d_Class31 ( Int) Bool)
(declare-fun type_5d56abcb_21bf_4dd9_aa93_8ae6b747d81d_Class25 ( Int) Bool)
(declare-fun type_5d56abcb_21bf_4dd9_aa93_8ae6b747d81d_Class26 ( Int) Bool)
(declare-fun type_5d56abcb_21bf_4dd9_aa93_8ae6b747d81d_Class23 ( Int) Bool)
(declare-fun type_5d56abcb_21bf_4dd9_aa93_8ae6b747d81d_Class24 ( Int) Bool)
(declare-fun type_5d56abcb_21bf_4dd9_aa93_8ae6b747d81d_Class29 ( Int) Bool)
(declare-fun type_5d56abcb_21bf_4dd9_aa93_8ae6b747d81d_Class27 ( Int) Bool)
(declare-fun type_5d56abcb_21bf_4dd9_aa93_8ae6b747d81d_Class28 ( Int) Bool)
(declare-fun type_5d56abcb_21bf_4dd9_aa93_8ae6b747d81d_Class21 ( Int) Bool)
(declare-fun type_5d56abcb_21bf_4dd9_aa93_8ae6b747d81d_Class22 ( Int) Bool)
(declare-fun type_5d56abcb_21bf_4dd9_aa93_8ae6b747d81d_Class20 ( Int) Bool)
(declare-fun type_5d56abcb_21bf_4dd9_aa93_8ae6b747d81d_Class14 ( Int) Bool)
(declare-fun type_5d56abcb_21bf_4dd9_aa93_8ae6b747d81d_Class15 ( Int) Bool)
(declare-fun type_5d56abcb_21bf_4dd9_aa93_8ae6b747d81d_Class12 ( Int) Bool)
(declare-fun type_5d56abcb_21bf_4dd9_aa93_8ae6b747d81d_Class13 ( Int) Bool)
(declare-fun type_5d56abcb_21bf_4dd9_aa93_8ae6b747d81d_Class18 ( Int) Bool)
(declare-fun type_5d56abcb_21bf_4dd9_aa93_8ae6b747d81d_Class19 ( Int) Bool)
(declare-fun type_5d56abcb_21bf_4dd9_aa93_8ae6b747d81d_Class16 ( Int) Bool)
(declare-fun type_5d56abcb_21bf_4dd9_aa93_8ae6b747d81d_Class17 ( Int) Bool)
(declare-fun type_5d56abcb_21bf_4dd9_aa93_8ae6b747d81d_Class10 ( Int) Bool)
(declare-fun type_5d56abcb_21bf_4dd9_aa93_8ae6b747d81d_Class11 ( Int) Bool)
(declare-fun obj_f84f14c1_68b7_451b_908e_8e7fa993ada3 ( Int) Int)
(declare-fun oclSelect ( Int Bool) Int)
(declare-fun type_5d56abcb_21bf_4dd9_aa93_8ae6b747d81d_Class7 ( Int) Bool)
(declare-fun type_5d56abcb_21bf_4dd9_aa93_8ae6b747d81d_Class8 ( Int) Bool)
(declare-fun type_5d56abcb_21bf_4dd9_aa93_8ae6b747d81d_Class9 ( Int) Bool)
(declare-fun type_5d56abcb_21bf_4dd9_aa93_8ae6b747d81d_Class3 ( Int) Bool)
(declare-fun type_5d56abcb_21bf_4dd9_aa93_8ae6b747d81d_Class4 ( Int) Bool)
(declare-fun type_5d56abcb_21bf_4dd9_aa93_8ae6b747d81d_Class5 ( Int) Bool)
(declare-fun type_5d56abcb_21bf_4dd9_aa93_8ae6b747d81d_Class6 ( Int) Bool)
(declare-fun type_5d56abcb_21bf_4dd9_aa93_8ae6b747d81d_Class0 ( Int) Bool)
(declare-fun type_5d56abcb_21bf_4dd9_aa93_8ae6b747d81d_Class1 ( Int) Bool)
(declare-fun Enum0 ( Int) Int)
(declare-fun type_5d56abcb_21bf_4dd9_aa93_8ae6b747d81d_Class2 ( Int) Bool)
(declare-fun Enum1 ( Int) Int)
(declare-fun Enum2 ( Int) Int)
(declare-fun container_ ( Int) Int)
(declare-fun oclIncludes ( Int Int) Bool)
(declare-fun ObjAt ( Int Int) Int)

;formula(s) generated
(assert (! (forall ((c1 Int)) (=> (and (and (and (and (and ( type_5d56abcb_21bf_4dd9_aa93_8ae6b747d81d_Class33 c1 )  ( type_5d56abcb_21bf_4dd9_aa93_8ae6b747d81d_Class13 c1 ) ) ( type_5d56abcb_21bf_4dd9_aa93_8ae6b747d81d_Class16 c1 ) ) ( type_5d56abcb_21bf_4dd9_aa93_8ae6b747d81d_Class15 c1 ) ) ( type_5d56abcb_21bf_4dd9_aa93_8ae6b747d81d_Class41 c1 ) ) ( type_5d56abcb_21bf_4dd9_aa93_8ae6b747d81d_Class2 c1 ) ) (= ( class33_Class33IntAttr3 ( obj_f84f14c1_68b7_451b_908e_8e7fa993ada3 c1 )  )  18))):named l0))
(assert (! (or (forall ((c3_2 Int)(c3_1 Int)) (=> (and (and (and (and (and (and ( type_5d56abcb_21bf_4dd9_aa93_8ae6b747d81d_Class33 c3_1 )  ( type_5d56abcb_21bf_4dd9_aa93_8ae6b747d81d_Class13 c3_1 ) ) ( type_5d56abcb_21bf_4dd9_aa93_8ae6b747d81d_Class16 c3_1 ) ) ( type_5d56abcb_21bf_4dd9_aa93_8ae6b747d81d_Class15 c3_1 ) ) ( type_5d56abcb_21bf_4dd9_aa93_8ae6b747d81d_Class41 c3_1 ) ) ( type_5d56abcb_21bf_4dd9_aa93_8ae6b747d81d_Class2 c3_1 ) ) (and (and (and (and (and ( type_5d56abcb_21bf_4dd9_aa93_8ae6b747d81d_Class33 c3_2 )  ( type_5d56abcb_21bf_4dd9_aa93_8ae6b747d81d_Class13 c3_2 ) ) ( type_5d56abcb_21bf_4dd9_aa93_8ae6b747d81d_Class16 c3_2 ) ) ( type_5d56abcb_21bf_4dd9_aa93_8ae6b747d81d_Class15 c3_2 ) ) ( type_5d56abcb_21bf_4dd9_aa93_8ae6b747d81d_Class41 c3_2 ) ) ( type_5d56abcb_21bf_4dd9_aa93_8ae6b747d81d_Class2 c3_2 ) )) (<= ( class33_Class33IntAttr2 ( obj_f84f14c1_68b7_451b_908e_8e7fa993ada3 c3_1 )  )  ( class33_Class33IntAttr3 ( obj_f84f14c1_68b7_451b_908e_8e7fa993ada3 c3_2 )  ) ))) (forall ((v Int)) (=> (and (and (and (and (and ( type_5d56abcb_21bf_4dd9_aa93_8ae6b747d81d_Class33 v )  ( type_5d56abcb_21bf_4dd9_aa93_8ae6b747d81d_Class13 v ) ) ( type_5d56abcb_21bf_4dd9_aa93_8ae6b747d81d_Class16 v ) ) ( type_5d56abcb_21bf_4dd9_aa93_8ae6b747d81d_Class15 v ) ) ( type_5d56abcb_21bf_4dd9_aa93_8ae6b747d81d_Class41 v ) ) ( type_5d56abcb_21bf_4dd9_aa93_8ae6b747d81d_Class2 v ) ) (= ( class33_Class33IntAttr3 ( obj_f84f14c1_68b7_451b_908e_8e7fa993ada3 v )  )  18)))):named l1))
(assert (! (forall ((v Int)) (=> (and (and (and (and (and ( type_5d56abcb_21bf_4dd9_aa93_8ae6b747d81d_Class33 v )  ( type_5d56abcb_21bf_4dd9_aa93_8ae6b747d81d_Class13 v ) ) ( type_5d56abcb_21bf_4dd9_aa93_8ae6b747d81d_Class16 v ) ) ( type_5d56abcb_21bf_4dd9_aa93_8ae6b747d81d_Class15 v ) ) ( type_5d56abcb_21bf_4dd9_aa93_8ae6b747d81d_Class41 v ) ) ( type_5d56abcb_21bf_4dd9_aa93_8ae6b747d81d_Class2 v ) ) (<= ( class33_Class33IntAttr3 ( obj_f84f14c1_68b7_451b_908e_8e7fa993ada3 v )  )  19))):named l2))
(assert (! (exists ((o Int)) (and (and (and ( type_5d56abcb_21bf_4dd9_aa93_8ae6b747d81d_Class0 ( obj_f84f14c1_68b7_451b_908e_8e7fa993ada3 o )  )  ( type_5d56abcb_21bf_4dd9_aa93_8ae6b747d81d_Class22 ( obj_f84f14c1_68b7_451b_908e_8e7fa993ada3 o )  ) ) ( type_5d56abcb_21bf_4dd9_aa93_8ae6b747d81d_Class35 ( obj_f84f14c1_68b7_451b_908e_8e7fa993ada3 o )  ) ) ( type_5d56abcb_21bf_4dd9_aa93_8ae6b747d81d_Class2 ( obj_f84f14c1_68b7_451b_908e_8e7fa993ada3 o )  ) )):named c0))
(assert (! (exists ((o Int)) ( type_5d56abcb_21bf_4dd9_aa93_8ae6b747d81d_Class1 ( obj_f84f14c1_68b7_451b_908e_8e7fa993ada3 o )  ) ):named c1))
(assert (! (exists ((o Int)) (and (and (and (and ( type_5d56abcb_21bf_4dd9_aa93_8ae6b747d81d_Class10 ( obj_f84f14c1_68b7_451b_908e_8e7fa993ada3 o )  )  ( type_5d56abcb_21bf_4dd9_aa93_8ae6b747d81d_Class16 ( obj_f84f14c1_68b7_451b_908e_8e7fa993ada3 o )  ) ) ( type_5d56abcb_21bf_4dd9_aa93_8ae6b747d81d_Class15 ( obj_f84f14c1_68b7_451b_908e_8e7fa993ada3 o )  ) ) ( type_5d56abcb_21bf_4dd9_aa93_8ae6b747d81d_Class41 ( obj_f84f14c1_68b7_451b_908e_8e7fa993ada3 o )  ) ) ( type_5d56abcb_21bf_4dd9_aa93_8ae6b747d81d_Class2 ( obj_f84f14c1_68b7_451b_908e_8e7fa993ada3 o )  ) )):named c2))
(assert (! (exists ((o Int)) ( type_5d56abcb_21bf_4dd9_aa93_8ae6b747d81d_Class11 ( obj_f84f14c1_68b7_451b_908e_8e7fa993ada3 o )  ) ):named c3))
(assert (! (exists ((o Int)) (and (and (and (and ( type_5d56abcb_21bf_4dd9_aa93_8ae6b747d81d_Class12 ( obj_f84f14c1_68b7_451b_908e_8e7fa993ada3 o )  )  ( type_5d56abcb_21bf_4dd9_aa93_8ae6b747d81d_Class22 ( obj_f84f14c1_68b7_451b_908e_8e7fa993ada3 o )  ) ) ( type_5d56abcb_21bf_4dd9_aa93_8ae6b747d81d_Class35 ( obj_f84f14c1_68b7_451b_908e_8e7fa993ada3 o )  ) ) ( type_5d56abcb_21bf_4dd9_aa93_8ae6b747d81d_Class0 ( obj_f84f14c1_68b7_451b_908e_8e7fa993ada3 o )  ) ) ( type_5d56abcb_21bf_4dd9_aa93_8ae6b747d81d_Class2 ( obj_f84f14c1_68b7_451b_908e_8e7fa993ada3 o )  ) )):named c4))
(assert (! (exists ((o Int)) (and (and (and ( type_5d56abcb_21bf_4dd9_aa93_8ae6b747d81d_Class13 ( obj_f84f14c1_68b7_451b_908e_8e7fa993ada3 o )  )  ( type_5d56abcb_21bf_4dd9_aa93_8ae6b747d81d_Class16 ( obj_f84f14c1_68b7_451b_908e_8e7fa993ada3 o )  ) ) ( type_5d56abcb_21bf_4dd9_aa93_8ae6b747d81d_Class15 ( obj_f84f14c1_68b7_451b_908e_8e7fa993ada3 o )  ) ) ( type_5d56abcb_21bf_4dd9_aa93_8ae6b747d81d_Class2 ( obj_f84f14c1_68b7_451b_908e_8e7fa993ada3 o )  ) )):named c5))
(assert (! (exists ((o Int)) (and (and (and (and (and (and (and ( type_5d56abcb_21bf_4dd9_aa93_8ae6b747d81d_Class14 ( obj_f84f14c1_68b7_451b_908e_8e7fa993ada3 o )  )  ( type_5d56abcb_21bf_4dd9_aa93_8ae6b747d81d_Class33 ( obj_f84f14c1_68b7_451b_908e_8e7fa993ada3 o )  ) ) ( type_5d56abcb_21bf_4dd9_aa93_8ae6b747d81d_Class13 ( obj_f84f14c1_68b7_451b_908e_8e7fa993ada3 o )  ) ) ( type_5d56abcb_21bf_4dd9_aa93_8ae6b747d81d_Class16 ( obj_f84f14c1_68b7_451b_908e_8e7fa993ada3 o )  ) ) ( type_5d56abcb_21bf_4dd9_aa93_8ae6b747d81d_Class15 ( obj_f84f14c1_68b7_451b_908e_8e7fa993ada3 o )  ) ) ( type_5d56abcb_21bf_4dd9_aa93_8ae6b747d81d_Class4 ( obj_f84f14c1_68b7_451b_908e_8e7fa993ada3 o )  ) ) ( type_5d56abcb_21bf_4dd9_aa93_8ae6b747d81d_Class41 ( obj_f84f14c1_68b7_451b_908e_8e7fa993ada3 o )  ) ) ( type_5d56abcb_21bf_4dd9_aa93_8ae6b747d81d_Class2 ( obj_f84f14c1_68b7_451b_908e_8e7fa993ada3 o )  ) )):named c6))
(assert (! (exists ((o Int)) (and ( type_5d56abcb_21bf_4dd9_aa93_8ae6b747d81d_Class15 ( obj_f84f14c1_68b7_451b_908e_8e7fa993ada3 o )  )  ( type_5d56abcb_21bf_4dd9_aa93_8ae6b747d81d_Class2 ( obj_f84f14c1_68b7_451b_908e_8e7fa993ada3 o )  ) )):named c7))
(assert (! (exists ((o Int)) (and (and ( type_5d56abcb_21bf_4dd9_aa93_8ae6b747d81d_Class16 ( obj_f84f14c1_68b7_451b_908e_8e7fa993ada3 o )  )  ( type_5d56abcb_21bf_4dd9_aa93_8ae6b747d81d_Class15 ( obj_f84f14c1_68b7_451b_908e_8e7fa993ada3 o )  ) ) ( type_5d56abcb_21bf_4dd9_aa93_8ae6b747d81d_Class2 ( obj_f84f14c1_68b7_451b_908e_8e7fa993ada3 o )  ) )):named c8))
(assert (! (exists ((o Int)) (and (and (and (and ( type_5d56abcb_21bf_4dd9_aa93_8ae6b747d81d_Class17 ( obj_f84f14c1_68b7_451b_908e_8e7fa993ada3 o )  )  ( type_5d56abcb_21bf_4dd9_aa93_8ae6b747d81d_Class24 ( obj_f84f14c1_68b7_451b_908e_8e7fa993ada3 o )  ) ) ( type_5d56abcb_21bf_4dd9_aa93_8ae6b747d81d_Class26 ( obj_f84f14c1_68b7_451b_908e_8e7fa993ada3 o )  ) ) ( type_5d56abcb_21bf_4dd9_aa93_8ae6b747d81d_Class32 ( obj_f84f14c1_68b7_451b_908e_8e7fa993ada3 o )  ) ) ( type_5d56abcb_21bf_4dd9_aa93_8ae6b747d81d_Class2 ( obj_f84f14c1_68b7_451b_908e_8e7fa993ada3 o )  ) )):named c9))
(assert (! (exists ((o Int)) ( type_5d56abcb_21bf_4dd9_aa93_8ae6b747d81d_Class18 ( obj_f84f14c1_68b7_451b_908e_8e7fa993ada3 o )  ) ):named c10))
(assert (! (exists ((o Int)) ( type_5d56abcb_21bf_4dd9_aa93_8ae6b747d81d_Class19 ( obj_f84f14c1_68b7_451b_908e_8e7fa993ada3 o )  ) ):named c11))
(assert (! (exists ((o Int)) ( type_5d56abcb_21bf_4dd9_aa93_8ae6b747d81d_Class2 ( obj_f84f14c1_68b7_451b_908e_8e7fa993ada3 o )  ) ):named c12))
(assert (! (exists ((o Int)) (and (and ( type_5d56abcb_21bf_4dd9_aa93_8ae6b747d81d_Class20 ( obj_f84f14c1_68b7_451b_908e_8e7fa993ada3 o )  )  ( type_5d56abcb_21bf_4dd9_aa93_8ae6b747d81d_Class21 ( obj_f84f14c1_68b7_451b_908e_8e7fa993ada3 o )  ) ) ( type_5d56abcb_21bf_4dd9_aa93_8ae6b747d81d_Class2 ( obj_f84f14c1_68b7_451b_908e_8e7fa993ada3 o )  ) )):named c13))
(assert (! (exists ((o Int)) (and ( type_5d56abcb_21bf_4dd9_aa93_8ae6b747d81d_Class21 ( obj_f84f14c1_68b7_451b_908e_8e7fa993ada3 o )  )  ( type_5d56abcb_21bf_4dd9_aa93_8ae6b747d81d_Class2 ( obj_f84f14c1_68b7_451b_908e_8e7fa993ada3 o )  ) )):named c14))
(assert (! (exists ((o Int)) (and (and ( type_5d56abcb_21bf_4dd9_aa93_8ae6b747d81d_Class22 ( obj_f84f14c1_68b7_451b_908e_8e7fa993ada3 o )  )  ( type_5d56abcb_21bf_4dd9_aa93_8ae6b747d81d_Class35 ( obj_f84f14c1_68b7_451b_908e_8e7fa993ada3 o )  ) ) ( type_5d56abcb_21bf_4dd9_aa93_8ae6b747d81d_Class2 ( obj_f84f14c1_68b7_451b_908e_8e7fa993ada3 o )  ) )):named c15))
(assert (! (exists ((o Int)) (and (and (and (and (and (and ( type_5d56abcb_21bf_4dd9_aa93_8ae6b747d81d_Class23 ( obj_f84f14c1_68b7_451b_908e_8e7fa993ada3 o )  )  ( type_5d56abcb_21bf_4dd9_aa93_8ae6b747d81d_Class12 ( obj_f84f14c1_68b7_451b_908e_8e7fa993ada3 o )  ) ) ( type_5d56abcb_21bf_4dd9_aa93_8ae6b747d81d_Class22 ( obj_f84f14c1_68b7_451b_908e_8e7fa993ada3 o )  ) ) ( type_5d56abcb_21bf_4dd9_aa93_8ae6b747d81d_Class25 ( obj_f84f14c1_68b7_451b_908e_8e7fa993ada3 o )  ) ) ( type_5d56abcb_21bf_4dd9_aa93_8ae6b747d81d_Class35 ( obj_f84f14c1_68b7_451b_908e_8e7fa993ada3 o )  ) ) ( type_5d56abcb_21bf_4dd9_aa93_8ae6b747d81d_Class0 ( obj_f84f14c1_68b7_451b_908e_8e7fa993ada3 o )  ) ) ( type_5d56abcb_21bf_4dd9_aa93_8ae6b747d81d_Class2 ( obj_f84f14c1_68b7_451b_908e_8e7fa993ada3 o )  ) )):named c16))
(assert (! (exists ((o Int)) (and (and (and ( type_5d56abcb_21bf_4dd9_aa93_8ae6b747d81d_Class24 ( obj_f84f14c1_68b7_451b_908e_8e7fa993ada3 o )  )  ( type_5d56abcb_21bf_4dd9_aa93_8ae6b747d81d_Class26 ( obj_f84f14c1_68b7_451b_908e_8e7fa993ada3 o )  ) ) ( type_5d56abcb_21bf_4dd9_aa93_8ae6b747d81d_Class32 ( obj_f84f14c1_68b7_451b_908e_8e7fa993ada3 o )  ) ) ( type_5d56abcb_21bf_4dd9_aa93_8ae6b747d81d_Class2 ( obj_f84f14c1_68b7_451b_908e_8e7fa993ada3 o )  ) )):named c17))
(assert (! (exists ((o Int)) (and (and (and (and (and ( type_5d56abcb_21bf_4dd9_aa93_8ae6b747d81d_Class25 ( obj_f84f14c1_68b7_451b_908e_8e7fa993ada3 o )  )  ( type_5d56abcb_21bf_4dd9_aa93_8ae6b747d81d_Class12 ( obj_f84f14c1_68b7_451b_908e_8e7fa993ada3 o )  ) ) ( type_5d56abcb_21bf_4dd9_aa93_8ae6b747d81d_Class22 ( obj_f84f14c1_68b7_451b_908e_8e7fa993ada3 o )  ) ) ( type_5d56abcb_21bf_4dd9_aa93_8ae6b747d81d_Class35 ( obj_f84f14c1_68b7_451b_908e_8e7fa993ada3 o )  ) ) ( type_5d56abcb_21bf_4dd9_aa93_8ae6b747d81d_Class0 ( obj_f84f14c1_68b7_451b_908e_8e7fa993ada3 o )  ) ) ( type_5d56abcb_21bf_4dd9_aa93_8ae6b747d81d_Class2 ( obj_f84f14c1_68b7_451b_908e_8e7fa993ada3 o )  ) )):named c18))
(assert (! (exists ((o Int)) (and (and ( type_5d56abcb_21bf_4dd9_aa93_8ae6b747d81d_Class26 ( obj_f84f14c1_68b7_451b_908e_8e7fa993ada3 o )  )  ( type_5d56abcb_21bf_4dd9_aa93_8ae6b747d81d_Class32 ( obj_f84f14c1_68b7_451b_908e_8e7fa993ada3 o )  ) ) ( type_5d56abcb_21bf_4dd9_aa93_8ae6b747d81d_Class2 ( obj_f84f14c1_68b7_451b_908e_8e7fa993ada3 o )  ) )):named c19))
(assert (! (exists ((o Int)) (and ( type_5d56abcb_21bf_4dd9_aa93_8ae6b747d81d_Class27 ( obj_f84f14c1_68b7_451b_908e_8e7fa993ada3 o )  )  ( type_5d56abcb_21bf_4dd9_aa93_8ae6b747d81d_Class2 ( obj_f84f14c1_68b7_451b_908e_8e7fa993ada3 o )  ) )):named c20))
(assert (! (exists ((o Int)) ( type_5d56abcb_21bf_4dd9_aa93_8ae6b747d81d_Class28 ( obj_f84f14c1_68b7_451b_908e_8e7fa993ada3 o )  ) ):named c21))
(assert (! (exists ((o Int)) ( type_5d56abcb_21bf_4dd9_aa93_8ae6b747d81d_Class29 ( obj_f84f14c1_68b7_451b_908e_8e7fa993ada3 o )  ) ):named c22))
(assert (! (exists ((o Int)) ( type_5d56abcb_21bf_4dd9_aa93_8ae6b747d81d_Class3 ( obj_f84f14c1_68b7_451b_908e_8e7fa993ada3 o )  ) ):named c23))
(assert (! (exists ((o Int)) (and ( type_5d56abcb_21bf_4dd9_aa93_8ae6b747d81d_Class30 ( obj_f84f14c1_68b7_451b_908e_8e7fa993ada3 o )  )  ( type_5d56abcb_21bf_4dd9_aa93_8ae6b747d81d_Class2 ( obj_f84f14c1_68b7_451b_908e_8e7fa993ada3 o )  ) )):named c24))
(assert (! (exists ((o Int)) (and (and (and (and ( type_5d56abcb_21bf_4dd9_aa93_8ae6b747d81d_Class31 ( obj_f84f14c1_68b7_451b_908e_8e7fa993ada3 o )  )  ( type_5d56abcb_21bf_4dd9_aa93_8ae6b747d81d_Class16 ( obj_f84f14c1_68b7_451b_908e_8e7fa993ada3 o )  ) ) ( type_5d56abcb_21bf_4dd9_aa93_8ae6b747d81d_Class15 ( obj_f84f14c1_68b7_451b_908e_8e7fa993ada3 o )  ) ) ( type_5d56abcb_21bf_4dd9_aa93_8ae6b747d81d_Class41 ( obj_f84f14c1_68b7_451b_908e_8e7fa993ada3 o )  ) ) ( type_5d56abcb_21bf_4dd9_aa93_8ae6b747d81d_Class2 ( obj_f84f14c1_68b7_451b_908e_8e7fa993ada3 o )  ) )):named c25))
(assert (! (exists ((o Int)) (and ( type_5d56abcb_21bf_4dd9_aa93_8ae6b747d81d_Class32 ( obj_f84f14c1_68b7_451b_908e_8e7fa993ada3 o )  )  ( type_5d56abcb_21bf_4dd9_aa93_8ae6b747d81d_Class2 ( obj_f84f14c1_68b7_451b_908e_8e7fa993ada3 o )  ) )):named c26))
(assert (! (exists ((o Int)) (and (and (and (and (and ( type_5d56abcb_21bf_4dd9_aa93_8ae6b747d81d_Class33 ( obj_f84f14c1_68b7_451b_908e_8e7fa993ada3 o )  )  ( type_5d56abcb_21bf_4dd9_aa93_8ae6b747d81d_Class13 ( obj_f84f14c1_68b7_451b_908e_8e7fa993ada3 o )  ) ) ( type_5d56abcb_21bf_4dd9_aa93_8ae6b747d81d_Class16 ( obj_f84f14c1_68b7_451b_908e_8e7fa993ada3 o )  ) ) ( type_5d56abcb_21bf_4dd9_aa93_8ae6b747d81d_Class15 ( obj_f84f14c1_68b7_451b_908e_8e7fa993ada3 o )  ) ) ( type_5d56abcb_21bf_4dd9_aa93_8ae6b747d81d_Class41 ( obj_f84f14c1_68b7_451b_908e_8e7fa993ada3 o )  ) ) ( type_5d56abcb_21bf_4dd9_aa93_8ae6b747d81d_Class2 ( obj_f84f14c1_68b7_451b_908e_8e7fa993ada3 o )  ) )):named c27))
(assert (! (exists ((o Int)) ( type_5d56abcb_21bf_4dd9_aa93_8ae6b747d81d_Class34 ( obj_f84f14c1_68b7_451b_908e_8e7fa993ada3 o )  ) ):named c28))
(assert (! (exists ((o Int)) (and ( type_5d56abcb_21bf_4dd9_aa93_8ae6b747d81d_Class35 ( obj_f84f14c1_68b7_451b_908e_8e7fa993ada3 o )  )  ( type_5d56abcb_21bf_4dd9_aa93_8ae6b747d81d_Class2 ( obj_f84f14c1_68b7_451b_908e_8e7fa993ada3 o )  ) )):named c29))
(assert (! (exists ((o Int)) ( type_5d56abcb_21bf_4dd9_aa93_8ae6b747d81d_Class36 ( obj_f84f14c1_68b7_451b_908e_8e7fa993ada3 o )  ) ):named c30))
(assert (! (exists ((o Int)) ( type_5d56abcb_21bf_4dd9_aa93_8ae6b747d81d_Class37 ( obj_f84f14c1_68b7_451b_908e_8e7fa993ada3 o )  ) ):named c31))
(assert (! (exists ((o Int)) (and ( type_5d56abcb_21bf_4dd9_aa93_8ae6b747d81d_Class38 ( obj_f84f14c1_68b7_451b_908e_8e7fa993ada3 o )  )  ( type_5d56abcb_21bf_4dd9_aa93_8ae6b747d81d_Class2 ( obj_f84f14c1_68b7_451b_908e_8e7fa993ada3 o )  ) )):named c32))
(assert (! (exists ((o Int)) ( type_5d56abcb_21bf_4dd9_aa93_8ae6b747d81d_Class39 ( obj_f84f14c1_68b7_451b_908e_8e7fa993ada3 o )  ) ):named c33))
(assert (! (exists ((o Int)) (and (and (and (and (and (and ( type_5d56abcb_21bf_4dd9_aa93_8ae6b747d81d_Class4 ( obj_f84f14c1_68b7_451b_908e_8e7fa993ada3 o )  )  ( type_5d56abcb_21bf_4dd9_aa93_8ae6b747d81d_Class33 ( obj_f84f14c1_68b7_451b_908e_8e7fa993ada3 o )  ) ) ( type_5d56abcb_21bf_4dd9_aa93_8ae6b747d81d_Class13 ( obj_f84f14c1_68b7_451b_908e_8e7fa993ada3 o )  ) ) ( type_5d56abcb_21bf_4dd9_aa93_8ae6b747d81d_Class16 ( obj_f84f14c1_68b7_451b_908e_8e7fa993ada3 o )  ) ) ( type_5d56abcb_21bf_4dd9_aa93_8ae6b747d81d_Class15 ( obj_f84f14c1_68b7_451b_908e_8e7fa993ada3 o )  ) ) ( type_5d56abcb_21bf_4dd9_aa93_8ae6b747d81d_Class41 ( obj_f84f14c1_68b7_451b_908e_8e7fa993ada3 o )  ) ) ( type_5d56abcb_21bf_4dd9_aa93_8ae6b747d81d_Class2 ( obj_f84f14c1_68b7_451b_908e_8e7fa993ada3 o )  ) )):named c34))
(assert (! (exists ((o Int)) (and (and (and ( type_5d56abcb_21bf_4dd9_aa93_8ae6b747d81d_Class40 ( obj_f84f14c1_68b7_451b_908e_8e7fa993ada3 o )  )  ( type_5d56abcb_21bf_4dd9_aa93_8ae6b747d81d_Class21 ( obj_f84f14c1_68b7_451b_908e_8e7fa993ada3 o )  ) ) ( type_5d56abcb_21bf_4dd9_aa93_8ae6b747d81d_Class2 ( obj_f84f14c1_68b7_451b_908e_8e7fa993ada3 o )  ) ) ( type_5d56abcb_21bf_4dd9_aa93_8ae6b747d81d_Class20 ( obj_f84f14c1_68b7_451b_908e_8e7fa993ada3 o )  ) )):named c35))
(assert (! (exists ((o Int)) (and (and (and ( type_5d56abcb_21bf_4dd9_aa93_8ae6b747d81d_Class41 ( obj_f84f14c1_68b7_451b_908e_8e7fa993ada3 o )  )  ( type_5d56abcb_21bf_4dd9_aa93_8ae6b747d81d_Class16 ( obj_f84f14c1_68b7_451b_908e_8e7fa993ada3 o )  ) ) ( type_5d56abcb_21bf_4dd9_aa93_8ae6b747d81d_Class15 ( obj_f84f14c1_68b7_451b_908e_8e7fa993ada3 o )  ) ) ( type_5d56abcb_21bf_4dd9_aa93_8ae6b747d81d_Class2 ( obj_f84f14c1_68b7_451b_908e_8e7fa993ada3 o )  ) )):named c36))
(assert (! (exists ((o Int)) (and (and (and ( type_5d56abcb_21bf_4dd9_aa93_8ae6b747d81d_Class42 ( obj_f84f14c1_68b7_451b_908e_8e7fa993ada3 o )  )  ( type_5d56abcb_21bf_4dd9_aa93_8ae6b747d81d_Class22 ( obj_f84f14c1_68b7_451b_908e_8e7fa993ada3 o )  ) ) ( type_5d56abcb_21bf_4dd9_aa93_8ae6b747d81d_Class35 ( obj_f84f14c1_68b7_451b_908e_8e7fa993ada3 o )  ) ) ( type_5d56abcb_21bf_4dd9_aa93_8ae6b747d81d_Class2 ( obj_f84f14c1_68b7_451b_908e_8e7fa993ada3 o )  ) )):named c37))
(assert (! (exists ((o Int)) ( type_5d56abcb_21bf_4dd9_aa93_8ae6b747d81d_Class43 ( obj_f84f14c1_68b7_451b_908e_8e7fa993ada3 o )  ) ):named c38))
(assert (! (exists ((o Int)) (and (and (and (and (and (and ( type_5d56abcb_21bf_4dd9_aa93_8ae6b747d81d_Class44 ( obj_f84f14c1_68b7_451b_908e_8e7fa993ada3 o )  )  ( type_5d56abcb_21bf_4dd9_aa93_8ae6b747d81d_Class33 ( obj_f84f14c1_68b7_451b_908e_8e7fa993ada3 o )  ) ) ( type_5d56abcb_21bf_4dd9_aa93_8ae6b747d81d_Class13 ( obj_f84f14c1_68b7_451b_908e_8e7fa993ada3 o )  ) ) ( type_5d56abcb_21bf_4dd9_aa93_8ae6b747d81d_Class16 ( obj_f84f14c1_68b7_451b_908e_8e7fa993ada3 o )  ) ) ( type_5d56abcb_21bf_4dd9_aa93_8ae6b747d81d_Class15 ( obj_f84f14c1_68b7_451b_908e_8e7fa993ada3 o )  ) ) ( type_5d56abcb_21bf_4dd9_aa93_8ae6b747d81d_Class41 ( obj_f84f14c1_68b7_451b_908e_8e7fa993ada3 o )  ) ) ( type_5d56abcb_21bf_4dd9_aa93_8ae6b747d81d_Class2 ( obj_f84f14c1_68b7_451b_908e_8e7fa993ada3 o )  ) )):named c39))
(assert (! (exists ((o Int)) ( type_5d56abcb_21bf_4dd9_aa93_8ae6b747d81d_Class45 ( obj_f84f14c1_68b7_451b_908e_8e7fa993ada3 o )  ) ):named c40))
(assert (! (exists ((o Int)) ( type_5d56abcb_21bf_4dd9_aa93_8ae6b747d81d_Class5 ( obj_f84f14c1_68b7_451b_908e_8e7fa993ada3 o )  ) ):named c41))
(assert (! (exists ((o Int)) (and (and (and (and ( type_5d56abcb_21bf_4dd9_aa93_8ae6b747d81d_Class6 ( obj_f84f14c1_68b7_451b_908e_8e7fa993ada3 o )  )  ( type_5d56abcb_21bf_4dd9_aa93_8ae6b747d81d_Class22 ( obj_f84f14c1_68b7_451b_908e_8e7fa993ada3 o )  ) ) ( type_5d56abcb_21bf_4dd9_aa93_8ae6b747d81d_Class35 ( obj_f84f14c1_68b7_451b_908e_8e7fa993ada3 o )  ) ) ( type_5d56abcb_21bf_4dd9_aa93_8ae6b747d81d_Class2 ( obj_f84f14c1_68b7_451b_908e_8e7fa993ada3 o )  ) ) ( type_5d56abcb_21bf_4dd9_aa93_8ae6b747d81d_Class42 ( obj_f84f14c1_68b7_451b_908e_8e7fa993ada3 o )  ) )):named c42))
(assert (! (exists ((o Int)) ( type_5d56abcb_21bf_4dd9_aa93_8ae6b747d81d_Class7 ( obj_f84f14c1_68b7_451b_908e_8e7fa993ada3 o )  ) ):named c43))
(assert (! (exists ((o Int)) (and (and (and (and (and ( type_5d56abcb_21bf_4dd9_aa93_8ae6b747d81d_Class8 ( obj_f84f14c1_68b7_451b_908e_8e7fa993ada3 o )  )  ( type_5d56abcb_21bf_4dd9_aa93_8ae6b747d81d_Class16 ( obj_f84f14c1_68b7_451b_908e_8e7fa993ada3 o )  ) ) ( type_5d56abcb_21bf_4dd9_aa93_8ae6b747d81d_Class15 ( obj_f84f14c1_68b7_451b_908e_8e7fa993ada3 o )  ) ) ( type_5d56abcb_21bf_4dd9_aa93_8ae6b747d81d_Class41 ( obj_f84f14c1_68b7_451b_908e_8e7fa993ada3 o )  ) ) ( type_5d56abcb_21bf_4dd9_aa93_8ae6b747d81d_Class10 ( obj_f84f14c1_68b7_451b_908e_8e7fa993ada3 o )  ) ) ( type_5d56abcb_21bf_4dd9_aa93_8ae6b747d81d_Class2 ( obj_f84f14c1_68b7_451b_908e_8e7fa993ada3 o )  ) )):named c44))
(assert (! (exists ((o Int)) (and (and (and (and (and (and (and ( type_5d56abcb_21bf_4dd9_aa93_8ae6b747d81d_Class9 ( obj_f84f14c1_68b7_451b_908e_8e7fa993ada3 o )  )  ( type_5d56abcb_21bf_4dd9_aa93_8ae6b747d81d_Class22 ( obj_f84f14c1_68b7_451b_908e_8e7fa993ada3 o )  ) ) ( type_5d56abcb_21bf_4dd9_aa93_8ae6b747d81d_Class35 ( obj_f84f14c1_68b7_451b_908e_8e7fa993ada3 o )  ) ) ( type_5d56abcb_21bf_4dd9_aa93_8ae6b747d81d_Class16 ( obj_f84f14c1_68b7_451b_908e_8e7fa993ada3 o )  ) ) ( type_5d56abcb_21bf_4dd9_aa93_8ae6b747d81d_Class15 ( obj_f84f14c1_68b7_451b_908e_8e7fa993ada3 o )  ) ) ( type_5d56abcb_21bf_4dd9_aa93_8ae6b747d81d_Class0 ( obj_f84f14c1_68b7_451b_908e_8e7fa993ada3 o )  ) ) ( type_5d56abcb_21bf_4dd9_aa93_8ae6b747d81d_Class41 ( obj_f84f14c1_68b7_451b_908e_8e7fa993ada3 o )  ) ) ( type_5d56abcb_21bf_4dd9_aa93_8ae6b747d81d_Class2 ( obj_f84f14c1_68b7_451b_908e_8e7fa993ada3 o )  ) )):named c45))

 ;end of formula 